(set-info :smt-lib-version 2.6)
(set-logic QF_S)
(set-info :source |
Generated by: Murphy Berzish, Mitja Kulczynski, Federico Mora, Florin Manea, Joel Day, Dirk Nowotka, Vijay Ganesh, Zhengyang Lu
Generated on: 2020-10-01
Description: Translated from a collection of real-world regex queries, AutomataArk, collected by Loris D’Antoni and Fang Wang: https://github.com/lorisdanto/automatark
Application: Evaluate solvers on real-world regex queries
Target solver: Z3str3RE, CVC4, OSTRICH, Z3seq, Z3str3, Z3-Trau
Publications: Berzish, M., Kulczynski, M., Mora, F., Manea, F., Day, J. D., Nowotka, D., & Ganesh, V. (2021, July). An SMT solver for regular expressions and linear arithmetic over string length. In CAV 2021.
|)
(set-info :license "https://creativecommons.org/licenses/by/4.0/")
(set-info :category "industrial")
(set-info :status unsat)

(declare-const X String)
(assert (str.in_re X (re.++ (re.+ (re.union (str.to_re "a") (str.to_re "e") (str.to_re "i") (str.to_re "o") (str.to_re "u"))) (re.union (str.to_re "a") (str.to_re "e") (str.to_re "i") (str.to_re "o") (str.to_re "u")) (re.+ (re.union (str.to_re "a") (str.to_re "e") (str.to_re "i") (str.to_re "o") (str.to_re "u"))) (str.to_re "\u{a}"))))
(assert (str.in_re X (re.++ (str.to_re "are") (re.+ (re.union (str.to_re " ") (str.to_re "\u{9}") (str.to_re "\u{a}") (str.to_re "\u{c}") (str.to_re "\u{d}"))) (str.to_re "Toolbar") (re.+ (re.union (str.to_re " ") (str.to_re "\u{9}") (str.to_re "\u{a}") (str.to_re "\u{c}") (str.to_re "\u{d}"))) (str.to_re "X-Mailer:\u{13}Informationsearchnugget\u{13}spastb.freeprod.com\u{a}"))))
(assert (str.in_re X (re.++ (re.union (re.++ (str.to_re "N") (re.union (str.to_re "B") (str.to_re "L") (str.to_re "S") (str.to_re "T") (str.to_re "U"))) (re.++ (re.union (str.to_re "A") (str.to_re "M") (str.to_re "N")) (str.to_re "B")) (re.++ (re.union (str.to_re "B") (str.to_re "Q")) (str.to_re "C")) (str.to_re "ON") (str.to_re "PE") (str.to_re "SK")) (str.to_re "\u{a}"))))
(assert (not (str.in_re X (re.++ (str.to_re "connectedNodes") (re.+ (re.union (str.to_re " ") (str.to_re "\u{9}") (str.to_re "\u{a}") (str.to_re "\u{c}") (str.to_re "\u{d}"))) (str.to_re "insert") (re.+ (re.union (str.to_re " ") (str.to_re "\u{9}") (str.to_re "\u{a}") (str.to_re "\u{c}") (str.to_re "\u{d}"))) (str.to_re "haveFTUser-Agent:\u{a}")))))
(assert (not (str.in_re X (re.++ (str.to_re "DISK") (re.+ (re.union (str.to_re " ") (str.to_re "\u{9}") (str.to_re "\u{a}") (str.to_re "\u{c}") (str.to_re "\u{d}"))) (str.to_re "/cgi/logurl.cgiSubject:insertX-Mailer:\u{13}\u{a}")))))
(check-sat)

(exit)
